<number of tasks>
70

<cycle time>
251

<task times>
1 17
2 66
3 54
4 52
5 6
6 88
7 21
8 128
9 68
10 70
11 85
12 21
13 134
14 135
15 94
16 90
17 50
18 143
19 19
20 54
21 50
22 40
23 73
24 12
25 152
26 42
27 45
28 74
29 26
30 11
31 31
32 50
33 102
34 46
35 35
36 40
37 2
38 1
39 3
40 13
41 16
42 25
43 21
44 43
45 30
46 83
47 89
48 56
49 59
50 43
51 11
52 26
53 44
54 121
55 38
56 68
57 22
58 7
59 16
60 32
61 25
62 27
63 156
64 28
65 15
66 26
67 18
68 72
69 23
70 27

<precedence relations>
1,2
1,41
1,69
1,70
2,3
3,4
3,68
4,6
4,7
5,6
5,24
5,30
6,8
7,8
8,12
9,10
10,11
11,12
12,13
12,14
13,23
14,23
15,16
16,17
16,18
17,19
18,19
19,20
19,22
19,57
20,21
21,23
22,23
23,25
23,31
23,33
24,25
25,26
25,27
25,28
25,29
26,35
27,35
28,35
29,35
30,31
31,32
32,35
33,34
34,35
35,36
35,44
35,48
35,51
35,53
35,56
35,60
35,61
35,62
36,37
37,38
38,39
39,40
40,42
41,42
42,43
43,50
44,45
45,46
46,47
47,50
48,49
49,50
51,52
52,54
53,54
54,55
57,58
58,59
59,60
61,65
62,63
63,64
64,65
64,66
64,67

<setup times forward>
1,2:10
1,5:4
1,9:4
1,10:4
1,11:4
1,18:10
1,19:10
1,20:3
1,21:5
1,22:5
1,30:3
1,41:3
1,57:10
1,58:4
1,59:6
1,69:9
1,70:5
2,3:14
2,5:6
2,9:14
2,10:14
2,11:6
2,15:10
2,16:10
2,17:10
2,20:7
2,21:15
2,22:15
2,24:10
2,30:7
2,41:7
2,58:14
2,59:4
2,69:19
2,70:15
3,5:8
3,11:8
3,15:4
3,16:4
3,17:4
3,18:14
3,19:14
3,20:7
3,21:1
3,22:1
3,24:4
3,30:7
3,41:7
3,57:14
3,59:10
3,68:8
3,69:5
3,70:1
4,5:8
4,6:8
4,7:7
4,11:8
4,15:4
4,16:4
4,17:4
4,18:14
4,19:14
4,20:7
4,21:1
4,22:1
4,24:4
4,30:7
4,41:7
4,57:14
4,59:10
4,68:8
4,69:5
4,70:1
5,1:4
5,2:6
5,3:8
5,4:8
5,7:1
5,9:8
5,10:8
5,15:4
5,16:4
5,17:4
5,18:6
5,19:6
5,20:1
5,21:9
5,22:9
5,24:4
5,30:1
5,41:1
5,57:6
5,58:8
5,59:2
5,69:13
5,70:9
6,7:1
6,8:1
6,9:8
6,10:8
6,15:4
6,16:4
6,17:4
6,18:6
6,19:6
6,20:1
6,21:9
6,22:9
6,24:4
6,30:1
6,41:1
6,57:6
6,58:8
6,59:2
6,69:13
6,70:9
7,5:1
7,6:1
7,9:7
7,10:7
7,11:1
7,15:3
7,16:3
7,17:3
7,18:7
7,19:7
7,21:8
7,22:8
7,24:3
7,57:7
7,58:7
7,59:3
7,68:1
7,69:12
7,70:8
8,9:7
8,10:7
8,11:1
8,15:3
8,16:3
8,17:3
8,18:7
8,19:7
8,21:8
8,22:8
8,24:3
8,57:7
8,58:7
8,59:3
8,68:1
8,69:12
8,70:8
9,1:4
9,2:14
9,5:8
9,6:8
9,7:7
9,8:7
9,15:4
9,16:4
9,17:4
9,18:14
9,19:14
9,20:7
9,21:1
9,22:1
9,24:4
9,30:7
9,41:7
9,57:14
9,59:10
9,68:8
9,69:5
9,70:1
10,1:4
10,2:14
10,5:8
10,6:8
10,7:7
10,8:7
10,11:8
10,15:4
10,16:4
10,17:4
10,18:14
10,19:14
10,20:7
10,21:1
10,22:1
10,24:4
10,30:7
10,41:7
10,57:14
10,59:10
10,68:8
10,69:5
10,70:1
11,1:4
11,2:6
11,3:8
11,4:8
11,7:1
11,8:1
11,12:1
11,15:4
11,16:4
11,17:4
11,18:6
11,19:6
11,20:1
11,21:9
11,22:9
11,24:4
11,30:1
11,41:1
11,57:6
11,58:8
11,59:2
11,69:13
11,70:9
12,13:8
12,14:3
12,15:3
12,16:3
12,17:3
12,18:7
12,19:7
12,21:8
12,22:8
12,24:3
12,57:7
12,58:7
12,59:3
12,68:1
12,69:12
12,70:8
13,14:5
13,15:5
13,16:5
13,17:5
13,18:15
13,19:15
13,20:8
13,23:5
13,24:5
13,30:8
13,41:8
13,57:15
13,58:1
13,59:11
13,68:9
13,69:4
14,13:5
14,18:10
14,19:10
14,20:3
14,21:5
14,22:5
14,30:3
14,41:3
14,57:10
14,58:4
14,59:6
14,68:4
14,69:9
14,70:5
15,2:10
15,3:4
15,4:4
15,5:4
15,6:4
15,7:3
15,8:3
15,9:4
15,10:4
15,11:4
15,12:3
15,13:5
15,30:3
15,41:3
15,68:4
15,69:9
15,70:5
16,2:10
16,3:4
16,4:4
16,5:4
16,6:4
16,7:3
16,8:3
16,9:4
16,10:4
16,11:4
16,12:3
16,13:5
16,18:10
16,30:3
16,41:3
16,68:4
16,69:9
16,70:5
17,2:10
17,3:4
17,4:4
17,5:4
17,6:4
17,7:3
17,8:3
17,9:4
17,10:4
17,11:4
17,12:3
17,13:5
17,18:10
17,19:10
17,30:3
17,41:3
17,68:4
17,69:9
17,70:5
18,1:10
18,3:14
18,4:14
18,5:6
18,6:6
18,7:7
18,8:7
18,9:14
18,10:14
18,11:6
18,12:7
18,13:15
18,14:10
18,17:10
18,24:10
18,30:7
18,41:7
18,68:6
18,69:19
18,70:15
19,1:10
19,3:14
19,4:14
19,5:6
19,6:6
19,7:7
19,8:7
19,9:14
19,10:14
19,11:6
19,12:7
19,13:15
19,14:10
19,20:7
19,22:15
19,24:10
19,30:7
19,41:7
19,68:6
19,69:19
19,70:15
20,1:3
20,2:7
20,3:7
20,4:7
20,5:1
20,6:1
20,9:7
20,10:7
20,11:1
20,13:8
20,14:3
20,21:8
20,22:8
20,24:3
20,57:7
20,58:7
20,59:3
20,68:1
20,69:12
20,70:8
21,1:5
21,2:15
21,3:1
21,4:1
21,5:9
21,6:9
21,7:8
21,8:8
21,9:1
21,10:1
21,11:9
21,12:8
21,14:5
21,23:5
21,24:5
21,30:8
21,41:8
21,57:15
21,58:1
21,59:11
21,68:9
21,69:4
22,1:5
22,2:15
22,3:1
22,4:1
22,5:9
22,6:9
22,7:8
22,8:8
22,9:1
22,10:1
22,11:9
22,12:8
22,14:5
22,20:8
22,23:5
22,24:5
22,30:8
22,41:8
22,57:15
22,58:1
22,59:11
22,68:9
22,69:4
23,25:9
23,30:3
23,33:6
23,41:3
23,57:10
23,58:4
23,59:6
23,68:4
23,69:9
23,70:5
24,2:10
24,3:4
24,4:4
24,6:4
24,7:3
24,8:3
24,9:4
24,10:4
24,11:4
24,12:3
24,13:5
24,18:10
24,19:10
24,20:3
24,21:5
24,22:5
24,25:9
24,30:3
24,32:4
24,33:6
24,34:6
24,41:3
24,57:10
24,58:4
24,59:6
24,68:4
24,69:9
24,70:5
25,26:15
25,27:15
25,29:5
25,30:12
25,31:9
25,32:5
25,33:15
25,34:15
25,41:12
25,57:19
25,58:5
25,59:15
25,68:13
25,70:4
26,28:15
26,29:10
26,30:3
26,31:6
26,32:10
26,35:10
26,41:3
26,57:4
26,58:10
26,68:2
26,69:15
26,70:11
27,28:15
27,29:10
27,30:3
27,31:6
27,32:10
27,35:10
27,41:3
27,57:4
27,58:10
27,68:2
27,69:15
27,70:11
28,26:15
28,27:15
28,29:5
28,30:12
28,31:9
28,32:5
28,33:15
28,34:15
28,35:5
28,41:12
28,57:19
28,58:5
28,59:15
28,68:13
28,70:4
29,26:10
29,27:10
29,28:5
29,30:7
29,31:4
29,33:10
29,34:10
29,41:7
29,57:14
29,59:10
29,68:8
29,69:5
29,70:1
30,1:3
30,2:7
30,3:7
30,4:7
30,6:1
30,9:7
30,10:7
30,11:1
30,13:8
30,14:3
30,15:3
30,16:3
30,17:3
30,18:7
30,19:7
30,21:8
30,22:8
30,23:3
30,24:3
30,25:12
30,26:3
30,27:3
30,28:12
30,29:7
30,31:3
30,33:3
30,34:3
30,57:7
30,58:7
30,59:3
30,68:1
30,69:12
30,70:8
31,25:9
31,26:6
31,27:6
31,28:9
31,29:4
31,32:4
31,33:6
31,34:6
31,41:3
31,57:10
31,58:4
31,59:6
31,68:4
31,69:9
31,70:5
32,24:4
32,25:5
32,26:10
32,27:10
32,28:5
32,33:10
32,34:10
32,41:7
32,57:14
32,59:10
32,68:8
32,69:5
32,70:1
33,24:6
33,25:15
33,28:15
33,29:10
33,30:3
33,31:6
33,32:10
33,41:3
33,57:4
33,58:10
33,68:2
33,69:15
33,70:11
34,24:6
34,25:15
34,28:15
34,29:10
34,30:3
34,31:6
34,32:10
34,35:10
34,41:3
34,57:4
34,58:10
34,68:2
34,69:15
34,70:11
35,41:7
35,48:7
35,51:3
35,53:7
35,56:3
35,57:14
35,59:10
35,60:7
35,61:3
35,68:8
35,69:5
35,70:1
36,37:7
36,41:7
36,46:7
36,47:11
36,48:7
36,49:7
36,51:3
36,52:3
36,53:7
36,54:3
36,55:11
36,56:3
36,57:14
36,59:10
36,60:7
36,61:3
36,63:7
36,64:7
36,65:11
36,66:11
36,67:11
36,68:8
36,69:5
36,70:1
37,41:14
37,44:7
37,45:7
37,46:14
37,47:18
37,48:14
37,49:14
37,51:10
37,52:10
37,54:10
37,55:18
37,56:10
37,57:21
37,58:7
37,59:17
37,61:10
37,62:7
37,64:14
37,65:18
37,66:18
37,67:18
37,68:15
37,69:2
37,70:6
38,41:14
38,44:7
38,45:7
38,46:14
38,47:18
38,48:14
38,49:14
38,51:10
38,52:10
38,54:10
38,55:18
38,56:10
38,57:21
38,58:7
38,59:17
38,61:10
38,62:7
38,64:14
38,65:18
38,66:18
38,67:18
38,68:15
38,69:2
38,70:6
39,41:14
39,44:7
39,45:7
39,46:14
39,47:18
39,48:14
39,49:14
39,51:10
39,52:10
39,54:10
39,55:18
39,56:10
39,57:21
39,58:7
39,59:17
39,61:10
39,62:7
39,64:14
39,65:18
39,66:18
39,67:18
39,68:15
39,69:2
39,70:6
40,41:14
40,42:14
40,44:7
40,45:7
40,46:14
40,47:18
40,48:14
40,49:14
40,51:10
40,52:10
40,54:10
40,55:18
40,56:10
40,57:21
40,58:7
40,59:17
40,61:10
40,62:7
40,64:14
40,65:18
40,66:18
40,67:18
40,68:15
40,69:2
40,70:6
41,2:7
41,3:7
41,4:7
41,5:1
41,6:1
41,9:7
41,10:7
41,11:1
41,13:8
41,14:3
41,15:3
41,16:3
41,17:3
41,18:7
41,19:7
41,21:8
41,22:8
41,23:3
41,24:3
41,25:12
41,26:3
41,27:3
41,28:12
41,29:7
41,31:3
41,32:7
41,33:3
41,34:3
41,35:7
41,36:7
41,37:14
41,38:14
41,39:14
41,40:14
41,44:7
41,45:7
41,47:4
41,51:4
41,52:4
41,53:14
41,54:4
41,55:4
41,56:4
41,57:7
41,58:7
41,59:3
41,60:14
41,61:4
41,62:7
41,63:14
41,65:4
41,66:4
41,67:4
41,68:1
41,69:12
41,70:8
42,43:4
42,44:7
42,45:7
42,47:4
42,51:4
42,52:4
42,53:14
42,54:4
42,55:4
42,56:4
42,57:7
42,58:7
42,59:3
42,60:14
42,61:4
42,62:7
42,63:14
42,65:4
42,66:4
42,67:4
42,68:1
42,69:12
42,70:8
43,44:11
43,45:11
43,46:4
43,48:4
43,49:4
43,51:8
43,52:8
43,53:18
43,54:8
43,56:8
43,57:3
43,58:11
43,59:1
43,60:18
43,61:8
43,62:11
43,63:18
43,64:4
43,68:3
43,69:16
43,70:12
44,37:7
44,38:7
44,39:7
44,40:7
44,41:7
44,42:7
44,43:11
44,48:7
44,49:7
44,51:3
44,52:3
44,53:7
44,54:3
44,55:11
44,56:3
44,57:14
44,59:10
44,60:7
44,61:3
44,63:7
44,64:7
44,65:11
44,66:11
44,67:11
44,68:8
44,69:5
44,70:1
45,37:7
45,38:7
45,39:7
45,40:7
45,41:7
45,42:7
45,43:11
45,46:7
45,48:7
45,49:7
45,51:3
45,52:3
45,53:7
45,54:3
45,55:11
45,56:3
45,57:14
45,59:10
45,60:7
45,61:3
45,63:7
45,64:7
45,65:11
45,66:11
45,67:11
45,68:8
45,69:5
45,70:1
46,36:7
46,37:14
46,38:14
46,39:14
46,40:14
46,43:4
46,47:4
46,51:4
46,52:4
46,53:14
46,54:4
46,55:4
46,56:4
46,57:7
46,58:7
46,59:3
46,60:14
46,61:4
46,62:7
46,63:14
46,65:4
46,66:4
46,67:4
46,68:1
46,69:12
46,70:8
47,36:11
47,37:18
47,38:18
47,39:18
47,40:18
47,41:4
47,42:4
47,48:4
47,49:4
47,51:8
47,52:8
47,53:18
47,54:8
47,56:8
47,57:3
47,58:11
47,59:1
47,60:18
47,61:8
47,62:11
47,63:18
47,64:4
47,68:3
47,69:16
47,70:12
48,36:7
48,37:14
48,38:14
48,39:14
48,40:14
48,43:4
48,44:7
48,45:7
48,47:4
48,51:4
48,52:4
48,53:14
48,54:4
48,55:4
48,56:4
48,57:7
48,58:7
48,59:3
48,60:14
48,61:4
48,62:7
48,63:14
48,65:4
48,66:4
48,67:4
48,68:1
48,69:12
48,70:8
49,36:7
49,37:14
49,38:14
49,39:14
49,40:14
49,43:4
49,44:7
49,45:7
49,47:4
49,50:4
49,51:4
49,52:4
49,53:14
49,54:4
49,55:4
49,56:4
49,57:7
49,58:7
49,59:3
49,60:14
49,61:4
49,62:7
49,63:14
49,65:4
49,66:4
49,67:4
49,68:1
49,69:12
49,70:8
50,51:8
50,52:8
50,53:18
50,54:8
50,56:8
50,57:3
50,58:11
50,59:1
50,60:18
50,61:8
50,62:11
50,63:18
50,64:4
50,68:3
50,69:16
50,70:12
51,36:3
51,37:10
51,38:10
51,39:10
51,40:10
51,41:4
51,42:4
51,43:8
51,44:3
51,45:3
51,46:4
51,47:8
51,48:4
51,49:4
51,50:8
51,53:10
51,57:11
51,58:3
51,59:7
51,60:10
51,62:3
51,63:10
51,64:4
51,65:8
51,66:8
51,67:8
51,68:5
51,69:8
51,70:4
52,36:3
52,37:10
52,38:10
52,39:10
52,40:10
52,41:4
52,42:4
52,43:8
52,44:3
52,45:3
52,46:4
52,47:8
52,48:4
52,49:4
52,50:8
52,53:10
52,57:11
52,58:3
52,59:7
52,60:10
52,62:3
52,63:10
52,64:4
52,65:8
52,66:8
52,67:8
52,68:5
52,69:8
52,70:4
53,36:7
53,41:14
53,42:14
53,43:18
53,44:7
53,45:7
53,46:14
53,47:18
53,48:14
53,49:14
53,50:18
53,51:10
53,52:10
53,54:10
53,56:10
53,57:21
53,58:7
53,59:17
53,61:10
53,62:7
53,64:14
53,65:18
53,66:18
53,67:18
53,68:15
53,69:2
53,70:6
54,36:3
54,37:10
54,38:10
54,39:10
54,40:10
54,41:4
54,42:4
54,43:8
54,44:3
54,45:3
54,46:4
54,47:8
54,48:4
54,49:4
54,50:8
54,55:8
54,57:11
54,58:3
54,59:7
54,60:10
54,62:3
54,63:10
54,64:4
54,65:8
54,66:8
54,67:8
54,68:5
54,69:8
54,70:4
55,36:11
55,37:18
55,38:18
55,39:18
55,40:18
55,41:4
55,42:4
55,44:11
55,45:11
55,46:4
55,48:4
55,49:4
55,56:8
55,57:3
55,58:11
55,59:1
55,60:18
55,61:8
55,62:11
55,63:18
55,64:4
55,68:3
55,69:16
55,70:12
56,36:3
56,37:10
56,38:10
56,39:10
56,40:10
56,41:4
56,42:4
56,43:8
56,44:3
56,45:3
56,46:4
56,47:8
56,48:4
56,49:4
56,50:8
56,53:10
56,55:8
56,57:11
56,58:3
56,59:7
56,60:10
56,62:3
56,63:10
56,64:4
56,65:8
56,66:8
56,67:8
56,68:5
56,69:8
56,70:4
57,1:10
57,3:14
57,4:14
57,5:6
57,6:6
57,7:7
57,8:7
57,9:14
57,10:14
57,11:6
57,12:7
57,13:15
57,14:10
57,20:7
57,21:15
57,22:15
57,23:10
57,24:10
57,25:19
57,26:4
57,27:4
57,28:19
57,29:14
57,30:7
57,31:10
57,32:14
57,33:4
57,34:4
57,35:14
57,36:14
57,37:21
57,38:21
57,39:21
57,40:21
57,41:7
57,42:7
57,43:3
57,44:14
57,45:14
57,46:7
57,47:3
57,48:7
57,49:7
57,50:3
57,51:11
57,52:11
57,53:21
57,54:11
57,55:3
57,56:11
57,58:14
57,61:11
57,62:14
57,63:21
57,64:7
57,65:3
57,66:3
57,67:3
57,68:6
57,69:19
57,70:15
58,1:4
58,2:14
58,5:8
58,6:8
58,7:7
58,8:7
58,11:8
58,12:7
58,13:1
58,14:4
58,20:7
58,21:1
58,22:1
58,23:4
58,24:4
58,25:5
58,26:10
58,27:10
58,28:5
58,30:7
58,31:4
58,33:10
58,34:10
58,37:7
58,38:7
58,39:7
58,40:7
58,41:7
58,42:7
58,43:11
58,46:7
58,47:11
58,48:7
58,49:7
58,50:11
58,51:3
58,52:3
58,53:7
58,54:3
58,55:11
58,56:3
58,59:10
58,61:3
58,63:7
58,64:7
58,65:11
58,66:11
58,67:11
58,68:8
58,69:5
58,70:1
59,1:6
59,2:4
59,3:10
59,4:10
59,5:2
59,6:2
59,7:3
59,8:3
59,9:10
59,10:10
59,11:2
59,12:3
59,13:11
59,14:6
59,20:3
59,21:11
59,22:11
59,23:6
59,24:6
59,25:15
59,28:15
59,29:10
59,30:3
59,31:6
59,32:10
59,35:10
59,36:10
59,37:17
59,38:17
59,39:17
59,40:17
59,41:3
59,42:3
59,43:1
59,44:10
59,45:10
59,46:3
59,47:1
59,48:3
59,49:3
59,50:1
59,51:7
59,52:7
59,53:17
59,54:7
59,55:1
59,56:7
59,60:17
59,61:7
59,62:10
59,63:17
59,64:3
59,65:1
59,66:1
59,67:1
59,68:2
59,69:15
59,70:11
60,36:7
60,41:14
60,42:14
60,43:18
60,44:7
60,45:7
60,46:14
60,47:18
60,48:14
60,49:14
60,50:18
60,51:10
60,52:10
60,54:10
60,55:18
60,56:10
60,61:10
60,62:7
60,64:14
60,65:18
60,66:18
60,67:18
60,68:15
60,69:2
60,70:6
61,36:3
61,37:10
61,38:10
61,39:10
61,40:10
61,41:4
61,42:4
61,43:8
61,44:3
61,45:3
61,46:4
61,47:8
61,48:4
61,49:4
61,50:8
61,53:10
61,55:8
61,57:11
61,58:3
61,59:7
61,60:10
61,62:3
61,63:10
61,64:4
61,65:8
61,66:8
61,67:8
61,68:5
61,69:8
61,70:4
62,37:7
62,38:7
62,39:7
62,40:7
62,41:7
62,42:7
62,43:11
62,46:7
62,47:11
62,48:7
62,49:7
62,50:11
62,51:3
62,52:3
62,53:7
62,54:3
62,55:11
62,56:3
62,57:14
62,59:10
62,60:7
62,61:3
62,63:7
62,68:8
62,69:5
62,70:1
63,36:7
63,41:14
63,42:14
63,43:18
63,44:7
63,45:7
63,46:14
63,47:18
63,48:14
63,49:14
63,50:18
63,51:10
63,52:10
63,54:10
63,55:18
63,56:10
63,57:21
63,58:7
63,59:17
63,61:10
63,64:14
63,68:15
63,69:2
63,70:6
64,36:7
64,37:14
64,38:14
64,39:14
64,40:14
64,43:4
64,44:7
64,45:7
64,47:4
64,50:4
64,51:4
64,52:4
64,53:14
64,54:4
64,55:4
64,56:4
64,57:7
64,58:7
64,59:3
64,60:14
64,61:4
64,65:4
64,66:4
64,67:4
64,68:1
64,69:12
64,70:8
65,36:11
65,37:18
65,38:18
65,39:18
65,40:18
65,41:4
65,42:4
65,44:11
65,45:11
65,46:4
65,48:4
65,49:4
65,51:8
65,52:8
65,53:18
65,54:8
65,56:8
65,57:3
65,58:11
65,59:1
65,60:18
65,68:3
65,69:16
65,70:12
66,36:11
66,37:18
66,38:18
66,39:18
66,40:18
66,41:4
66,42:4
66,44:11
66,45:11
66,46:4
66,48:4
66,49:4
66,51:8
66,52:8
66,53:18
66,54:8
66,56:8
66,57:3
66,58:11
66,59:1
66,60:18
66,61:8
66,68:3
66,69:16
66,70:12
67,36:11
67,37:18
67,38:18
67,39:18
67,40:18
67,41:4
67,42:4
67,44:11
67,45:11
67,46:4
67,48:4
67,49:4
67,51:8
67,52:8
67,53:18
67,54:8
67,56:8
67,57:3
67,58:11
67,59:1
67,60:18
67,61:8
67,68:3
67,69:16
67,70:12
68,4:8
68,7:1
68,8:1
68,9:8
68,10:8
68,12:1
68,13:9
68,14:4
68,15:4
68,16:4
68,17:4
68,18:6
68,19:6
68,20:1
68,21:9
68,22:9
68,23:4
68,24:4
68,25:13
68,26:2
68,27:2
68,28:13
68,29:8
68,30:1
68,31:4
68,32:8
68,33:2
68,34:2
68,35:8
68,36:8
68,37:15
68,38:15
68,39:15
68,40:15
68,41:1
68,42:1
68,43:3
68,44:8
68,45:8
68,46:1
68,47:3
68,48:1
68,49:1
68,50:3
68,51:5
68,52:5
68,53:15
68,54:5
68,55:3
68,56:5
68,57:6
68,58:8
68,59:2
68,60:15
68,61:5
68,62:8
68,63:15
68,64:1
68,65:3
68,66:3
68,67:3
68,69:13
68,70:9
69,2:19
69,3:5
69,4:5
69,5:13
69,6:13
69,7:12
69,8:12
69,9:5
69,10:5
69,11:13
69,12:12
69,13:4
69,14:9
69,15:9
69,16:9
69,17:9
69,18:19
69,19:19
69,20:12
69,21:4
69,22:4
69,23:9
69,24:9
69,26:15
69,27:15
69,29:5
69,30:12
69,31:9
69,32:5
69,33:15
69,34:15
69,35:5
69,36:5
69,37:2
69,38:2
69,39:2
69,40:2
69,41:12
69,42:12
69,43:16
69,44:5
69,45:5
69,46:12
69,47:16
69,48:12
69,49:12
69,50:16
69,51:8
69,52:8
69,53:2
69,54:8
69,55:16
69,56:8
69,57:19
69,58:5
69,59:15
69,60:2
69,61:8
69,62:5
69,63:2
69,64:12
69,65:16
69,66:16
69,67:16
69,68:13
69,70:4
70,2:15
70,3:1
70,4:1
70,5:9
70,6:9
70,7:8
70,8:8
70,9:1
70,10:1
70,11:9
70,12:8
70,14:5
70,15:5
70,16:5
70,17:5
70,18:15
70,19:15
70,20:8
70,23:5
70,24:5
70,25:4
70,26:11
70,27:11
70,28:4
70,29:1
70,30:8
70,31:5
70,32:1
70,33:11
70,34:11
70,35:1
70,36:1
70,37:6
70,38:6
70,39:6
70,40:6
70,41:8
70,42:8
70,43:12
70,44:1
70,45:1
70,46:8
70,47:12
70,48:8
70,49:8
70,50:12
70,51:4
70,52:4
70,53:6
70,54:4
70,55:12
70,56:4
70,57:15
70,58:1
70,59:11
70,60:6
70,61:4
70,62:1
70,63:6
70,64:8
70,65:12
70,66:12
70,67:12
70,68:9
70,69:4

<setup times backward>
1,9:4
1,10:4
1,21:5
1,22:5
1,58:4
2,1:10
2,5:6
2,9:14
2,10:14
2,11:6
2,15:10
2,16:10
2,17:10
2,20:7
2,21:15
2,22:15
2,24:10
2,30:7
2,41:7
2,58:14
2,59:4
2,69:19
2,70:15
3,21:1
3,22:1
3,69:5
3,70:1
4,21:1
4,22:1
4,69:5
4,70:1
5,1:4
5,3:8
5,4:8
5,7:1
5,9:8
5,10:8
5,15:4
5,16:4
5,17:4
5,20:1
5,21:9
5,22:9
5,41:1
5,58:8
5,69:13
5,70:9
6,1:4
6,3:8
6,4:8
6,7:1
6,9:8
6,10:8
6,15:4
6,16:4
6,17:4
6,20:1
6,21:9
6,22:9
6,24:4
6,30:1
6,41:1
6,58:8
6,69:13
6,70:9
7,1:3
7,3:7
7,4:7
7,9:7
7,10:7
7,15:3
7,16:3
7,17:3
7,21:8
7,22:8
7,24:3
7,58:7
7,69:12
7,70:8
8,1:3
8,3:7
8,4:7
8,9:7
8,10:7
8,15:3
8,16:3
8,17:3
8,21:8
8,22:8
8,24:3
8,58:7
8,69:12
8,70:8
9,21:1
9,22:1
9,69:5
9,70:1
10,21:1
10,22:1
10,69:5
10,70:1
11,1:4
11,3:8
11,4:8
11,7:1
11,8:1
11,9:8
11,10:8
11,15:4
11,16:4
11,17:4
11,20:1
11,21:9
11,22:9
11,24:4
11,30:1
11,41:1
11,58:8
11,69:13
11,70:9
12,1:3
12,3:7
12,4:7
12,9:7
12,10:7
12,15:3
12,16:3
12,17:3
12,21:8
12,22:8
12,24:3
12,58:7
12,69:12
12,70:8
13,69:4
14,3:4
14,4:4
14,9:4
14,10:4
14,13:5
14,21:5
14,22:5
14,58:4
14,69:9
14,70:5
15,3:4
15,4:4
15,9:4
15,10:4
15,13:5
15,69:9
15,70:5
16,3:4
16,4:4
16,9:4
16,10:4
16,13:5
16,69:9
16,70:5
17,3:4
17,4:4
17,9:4
17,10:4
17,13:5
17,69:9
17,70:5
18,1:10
18,3:14
18,4:14
18,5:6
18,6:6
18,7:7
18,8:7
18,9:14
18,10:14
18,11:6
18,12:7
18,13:15
18,14:10
18,15:10
18,16:10
18,17:10
18,24:10
18,30:7
18,41:7
18,68:6
18,69:19
18,70:15
19,1:10
19,3:14
19,4:14
19,5:6
19,6:6
19,7:7
19,8:7
19,9:14
19,10:14
19,11:6
19,12:7
19,13:15
19,14:10
19,15:10
19,16:10
19,17:10
19,24:10
19,30:7
19,41:7
19,68:6
19,69:19
19,70:15
20,1:3
20,3:7
20,4:7
20,9:7
20,10:7
20,13:8
20,14:3
20,15:3
20,16:3
20,17:3
20,22:8
20,24:3
20,58:7
20,69:12
20,70:8
21,69:4
22,69:4
23,3:4
23,4:4
23,9:4
23,10:4
23,13:5
23,21:5
23,22:5
23,58:4
23,69:9
23,70:5
24,3:4
24,4:4
24,9:4
24,10:4
24,13:5
24,21:5
24,22:5
24,32:4
24,58:4
24,69:9
24,70:5
26,1:6
26,3:10
26,4:10
26,5:2
26,6:2
26,7:3
26,8:3
26,9:10
26,10:10
26,11:2
26,12:3
26,13:11
26,14:6
26,15:6
26,16:6
26,17:6
26,20:3
26,21:11
26,22:11
26,23:6
26,24:6
26,25:15
26,28:15
26,29:10
26,30:3
26,31:6
26,32:10
26,41:3
26,58:10
26,68:2
26,69:15
26,70:11
27,1:6
27,3:10
27,4:10
27,5:2
27,6:2
27,7:3
27,8:3
27,9:10
27,10:10
27,11:2
27,12:3
27,13:11
27,14:6
27,15:6
27,16:6
27,17:6
27,20:3
27,21:11
27,22:11
27,23:6
27,24:6
27,25:15
27,28:15
27,29:10
27,30:3
27,31:6
27,32:10
27,41:3
27,58:10
27,68:2
27,69:15
27,70:11
29,13:1
29,21:1
29,22:1
29,25:5
29,28:5
29,69:5
29,70:1
30,1:3
30,3:7
30,4:7
30,9:7
30,10:7
30,13:8
30,14:3
30,15:3
30,16:3
30,17:3
30,21:8
30,22:8
30,23:3
30,24:3
30,25:12
30,28:12
30,29:7
30,58:7
30,69:12
30,70:8
31,3:4
31,4:4
31,9:4
31,10:4
31,13:5
31,21:5
31,22:5
31,25:9
31,28:9
31,29:4
31,58:4
31,69:9
31,70:5
32,13:1
32,21:1
32,22:1
32,25:5
32,28:5
32,69:5
32,70:1
33,1:6
33,3:10
33,4:10
33,5:2
33,6:2
33,7:3
33,8:3
33,9:10
33,10:10
33,11:2
33,12:3
33,13:11
33,14:6
33,15:6
33,16:6
33,17:6
33,20:3
33,21:11
33,22:11
33,23:6
33,24:6
33,25:15
33,28:15
33,29:10
33,30:3
33,31:6
33,32:10
33,41:3
33,58:10
33,68:2
33,69:15
33,70:11
34,1:6
34,3:10
34,4:10
34,5:2
34,6:2
34,7:3
34,8:3
34,9:10
34,10:10
34,11:2
34,12:3
34,13:11
34,14:6
34,15:6
34,16:6
34,17:6
34,20:3
34,21:11
34,22:11
34,23:6
34,24:6
34,25:15
34,28:15
34,29:10
34,30:3
34,31:6
34,32:10
34,41:3
34,58:10
34,68:2
34,69:15
34,70:11
35,13:1
35,21:1
35,22:1
35,25:5
35,28:5
35,69:5
35,70:1
36,13:1
36,21:1
36,22:1
36,25:5
36,28:5
36,53:7
36,60:7
36,63:7
36,69:5
36,70:1
41,1:3
41,3:7
41,4:7
41,9:7
41,10:7
41,13:8
41,14:3
41,15:3
41,16:3
41,17:3
41,21:8
41,22:8
41,23:3
41,24:3
41,25:12
41,28:12
41,29:7
41,31:3
41,32:7
41,35:7
41,36:7
41,37:14
41,38:14
41,39:14
41,40:14
41,44:7
41,45:7
41,51:4
41,52:4
41,53:14
41,54:4
41,56:4
41,58:7
41,60:14
41,61:4
41,62:7
41,63:14
41,69:12
41,70:8
42,1:3
42,3:7
42,4:7
42,9:7
42,10:7
42,13:8
42,14:3
42,15:3
42,16:3
42,17:3
42,21:8
42,22:8
42,23:3
42,24:3
42,25:12
42,28:12
42,29:7
42,31:3
42,32:7
42,35:7
42,36:7
42,37:14
42,38:14
42,39:14
42,40:14
42,44:7
42,45:7
42,51:4
42,52:4
42,53:14
42,54:4
42,56:4
42,58:7
42,60:14
42,61:4
42,62:7
42,63:14
42,69:12
42,70:8
43,1:7
43,3:11
43,4:11
43,5:3
43,6:3
43,7:4
43,8:4
43,9:11
43,10:11
43,11:3
43,12:4
43,13:12
43,14:7
43,15:7
43,16:7
43,17:7
43,20:4
43,21:12
43,22:12
43,23:7
43,24:7
43,25:16
43,26:1
43,27:1
43,28:16
43,29:11
43,30:4
43,31:7
43,32:11
43,33:1
43,34:1
43,35:11
43,36:11
43,37:18
43,38:18
43,39:18
43,40:18
43,41:4
43,42:4
43,44:11
43,45:11
43,46:4
43,48:4
43,49:4
43,51:8
43,52:8
43,53:18
43,54:8
43,56:8
43,58:11
43,59:1
43,60:18
43,61:8
43,62:11
43,63:18
43,64:4
43,68:3
43,69:16
43,70:12
44,13:1
44,21:1
44,22:1
44,25:5
44,28:5
44,37:7
44,38:7
44,39:7
44,40:7
44,53:7
44,60:7
44,63:7
44,69:5
44,70:1
45,13:1
45,21:1
45,22:1
45,25:5
45,28:5
45,37:7
45,38:7
45,39:7
45,40:7
45,53:7
45,60:7
45,63:7
45,69:5
45,70:1
46,1:3
46,3:7
46,4:7
46,9:7
46,10:7
46,13:8
46,14:3
46,15:3
46,16:3
46,17:3
46,21:8
46,22:8
46,23:3
46,24:3
46,25:12
46,28:12
46,29:7
46,31:3
46,32:7
46,35:7
46,36:7
46,37:14
46,38:14
46,39:14
46,40:14
46,44:7
46,45:7
46,51:4
46,52:4
46,53:14
46,54:4
46,56:4
46,58:7
46,60:14
46,61:4
46,62:7
46,63:14
46,69:12
46,70:8
47,1:7
47,3:11
47,4:11
47,5:3
47,6:3
47,7:4
47,8:4
47,9:11
47,10:11
47,11:3
47,12:4
47,13:12
47,14:7
47,15:7
47,16:7
47,17:7
47,20:4
47,21:12
47,22:12
47,23:7
47,24:7
47,25:16
47,26:1
47,27:1
47,28:16
47,29:11
47,30:4
47,31:7
47,32:11
47,33:1
47,34:1
47,35:11
47,36:11
47,37:18
47,38:18
47,39:18
47,40:18
47,41:4
47,42:4
47,44:11
47,45:11
47,46:4
47,48:4
47,49:4
47,51:8
47,52:8
47,53:18
47,54:8
47,56:8
47,58:11
47,59:1
47,60:18
47,61:8
47,62:11
47,63:18
47,64:4
47,68:3
47,69:16
47,70:12
48,1:3
48,3:7
48,4:7
48,9:7
48,10:7
48,13:8
48,14:3
48,15:3
48,16:3
48,17:3
48,21:8
48,22:8
48,23:3
48,24:3
48,25:12
48,28:12
48,29:7
48,31:3
48,32:7
48,35:7
48,36:7
48,37:14
48,38:14
48,39:14
48,40:14
48,44:7
48,45:7
48,51:4
48,52:4
48,53:14
48,54:4
48,56:4
48,58:7
48,60:14
48,61:4
48,62:7
48,63:14
48,69:12
48,70:8
49,1:3
49,3:7
49,4:7
49,9:7
49,10:7
49,13:8
49,14:3
49,15:3
49,16:3
49,17:3
49,21:8
49,22:8
49,23:3
49,24:3
49,25:12
49,28:12
49,29:7
49,31:3
49,32:7
49,35:7
49,36:7
49,37:14
49,38:14
49,39:14
49,40:14
49,44:7
49,45:7
49,51:4
49,52:4
49,53:14
49,54:4
49,56:4
49,58:7
49,60:14
49,61:4
49,62:7
49,63:14
49,69:12
49,70:8
50,1:7
50,3:11
50,4:11
50,5:3
50,6:3
50,7:4
50,8:4
50,9:11
50,10:11
50,11:3
50,12:4
50,13:12
50,14:7
50,15:7
50,16:7
50,17:7
50,20:4
50,21:12
50,22:12
50,23:7
50,24:7
50,25:16
50,26:1
50,27:1
50,28:16
50,29:11
50,30:4
50,31:7
50,32:11
50,33:1
50,34:1
50,35:11
50,36:11
50,37:18
50,38:18
50,39:18
50,40:18
50,41:4
50,42:4
50,44:11
50,45:11
50,46:4
50,48:4
50,49:4
50,51:8
50,52:8
50,53:18
50,54:8
50,56:8
50,58:11
50,59:1
50,60:18
50,61:8
50,62:11
50,63:18
50,64:4
50,68:3
50,69:16
50,70:12
51,3:3
51,4:3
51,9:3
51,10:3
51,13:4
51,21:4
51,22:4
51,25:8
51,28:8
51,29:3
51,32:3
51,35:3
51,36:3
51,37:10
51,38:10
51,39:10
51,40:10
51,44:3
51,45:3
51,53:10
51,58:3
51,60:10
51,62:3
51,63:10
51,69:8
51,70:4
52,3:3
52,4:3
52,9:3
52,10:3
52,13:4
52,21:4
52,22:4
52,25:8
52,28:8
52,29:3
52,32:3
52,35:3
52,36:3
52,37:10
52,38:10
52,39:10
52,40:10
52,44:3
52,45:3
52,53:10
52,58:3
52,60:10
52,62:3
52,63:10
52,69:8
52,70:4
54,3:3
54,4:3
54,9:3
54,10:3
54,13:4
54,21:4
54,22:4
54,25:8
54,28:8
54,29:3
54,32:3
54,35:3
54,36:3
54,37:10
54,38:10
54,39:10
54,40:10
54,44:3
54,45:3
54,53:10
54,58:3
54,60:10
54,62:3
54,63:10
54,69:8
54,70:4
55,1:7
55,3:11
55,4:11
55,5:3
55,6:3
55,7:4
55,8:4
55,9:11
55,10:11
55,11:3
55,12:4
55,13:12
55,14:7
55,15:7
55,16:7
55,17:7
55,20:4
55,21:12
55,22:12
55,23:7
55,24:7
55,25:16
55,26:1
55,27:1
55,28:16
55,29:11
55,30:4
55,31:7
55,32:11
55,33:1
55,34:1
55,35:11
55,36:11
55,37:18
55,38:18
55,39:18
55,40:18
55,41:4
55,42:4
55,44:11
55,45:11
55,46:4
55,48:4
55,49:4
55,51:8
55,52:8
55,53:18
55,54:8
55,56:8
55,58:11
55,59:1
55,60:18
55,61:8
55,62:11
55,63:18
55,64:4
55,68:3
55,69:16
55,70:12
56,3:3
56,4:3
56,9:3
56,10:3
56,13:4
56,21:4
56,22:4
56,25:8
56,28:8
56,29:3
56,32:3
56,35:3
56,36:3
56,37:10
56,38:10
56,39:10
56,40:10
56,44:3
56,45:3
56,53:10
56,58:3
56,60:10
56,62:3
56,63:10
56,69:8
56,70:4
57,1:10
57,3:14
57,4:14
57,5:6
57,6:6
57,7:7
57,8:7
57,9:14
57,10:14
57,11:6
57,12:7
57,13:15
57,14:10
57,15:10
57,16:10
57,17:10
57,20:7
57,21:15
57,22:15
57,23:10
57,24:10
57,25:19
57,26:4
57,27:4
57,28:19
57,29:14
57,30:7
57,31:10
57,32:14
57,33:4
57,34:4
57,35:14
57,36:14
57,37:21
57,38:21
57,39:21
57,40:21
57,41:7
57,42:7
57,43:3
57,44:14
57,45:14
57,46:7
57,47:3
57,48:7
57,49:7
57,50:3
57,51:11
57,52:11
57,53:21
57,54:11
57,55:3
57,56:11
57,61:11
57,62:14
57,63:21
57,64:7
57,65:3
57,66:3
57,67:3
57,68:6
57,69:19
57,70:15
58,13:1
58,21:1
58,22:1
58,25:5
58,28:5
58,37:7
58,38:7
58,39:7
58,40:7
58,53:7
58,63:7
58,69:5
58,70:1
59,1:6
59,3:10
59,4:10
59,5:2
59,6:2
59,7:3
59,8:3
59,9:10
59,10:10
59,11:2
59,12:3
59,13:11
59,14:6
59,15:6
59,16:6
59,17:6
59,20:3
59,21:11
59,22:11
59,23:6
59,24:6
59,25:15
59,28:15
59,29:10
59,30:3
59,31:6
59,32:10
59,35:10
59,36:10
59,37:17
59,38:17
59,39:17
59,40:17
59,41:3
59,42:3
59,44:10
59,45:10
59,46:3
59,48:3
59,49:3
59,51:7
59,52:7
59,53:17
59,54:7
59,56:7
59,58:10
59,61:7
59,62:10
59,63:17
59,64:3
59,68:2
59,69:15
59,70:11
61,3:3
61,4:3
61,9:3
61,10:3
61,13:4
61,21:4
61,22:4
61,25:8
61,28:8
61,29:3
61,32:3
61,35:3
61,36:3
61,37:10
61,38:10
61,39:10
61,40:10
61,44:3
61,45:3
61,53:10
61,58:3
61,60:10
61,62:3
61,63:10
61,69:8
61,70:4
62,13:1
62,21:1
62,22:1
62,25:5
62,28:5
62,37:7
62,38:7
62,39:7
62,40:7
62,53:7
62,60:7
62,69:5
62,70:1
64,1:3
64,3:7
64,4:7
64,9:7
64,10:7
64,13:8
64,14:3
64,15:3
64,16:3
64,17:3
64,21:8
64,22:8
64,23:3
64,24:3
64,25:12
64,28:12
64,29:7
64,31:3
64,32:7
64,35:7
64,36:7
64,37:14
64,38:14
64,39:14
64,40:14
64,44:7
64,45:7
64,51:4
64,52:4
64,53:14
64,54:4
64,56:4
64,58:7
64,60:14
64,61:4
64,62:7
64,63:14
64,69:12
64,70:8
65,1:7
65,3:11
65,4:11
65,5:3
65,6:3
65,7:4
65,8:4
65,9:11
65,10:11
65,11:3
65,12:4
65,13:12
65,14:7
65,15:7
65,16:7
65,17:7
65,20:4
65,21:12
65,22:12
65,23:7
65,24:7
65,25:16
65,26:1
65,27:1
65,28:16
65,29:11
65,30:4
65,31:7
65,32:11
65,33:1
65,34:1
65,35:11
65,36:11
65,37:18
65,38:18
65,39:18
65,40:18
65,41:4
65,42:4
65,44:11
65,45:11
65,46:4
65,48:4
65,49:4
65,51:8
65,52:8
65,53:18
65,54:8
65,56:8
65,58:11
65,59:1
65,60:18
65,61:8
65,62:11
65,63:18
65,64:4
65,68:3
65,69:16
65,70:12
66,1:7
66,3:11
66,4:11
66,5:3
66,6:3
66,7:4
66,8:4
66,9:11
66,10:11
66,11:3
66,12:4
66,13:12
66,14:7
66,15:7
66,16:7
66,17:7
66,20:4
66,21:12
66,22:12
66,23:7
66,24:7
66,25:16
66,26:1
66,27:1
66,28:16
66,29:11
66,30:4
66,31:7
66,32:11
66,33:1
66,34:1
66,35:11
66,36:11
66,37:18
66,38:18
66,39:18
66,40:18
66,41:4
66,42:4
66,44:11
66,45:11
66,46:4
66,48:4
66,49:4
66,51:8
66,52:8
66,53:18
66,54:8
66,56:8
66,58:11
66,59:1
66,60:18
66,61:8
66,62:11
66,63:18
66,64:4
66,68:3
66,69:16
66,70:12
67,1:7
67,3:11
67,4:11
67,5:3
67,6:3
67,7:4
67,8:4
67,9:11
67,10:11
67,11:3
67,12:4
67,13:12
67,14:7
67,15:7
67,16:7
67,17:7
67,20:4
67,21:12
67,22:12
67,23:7
67,24:7
67,25:16
67,26:1
67,27:1
67,28:16
67,29:11
67,30:4
67,31:7
67,32:11
67,33:1
67,34:1
67,35:11
67,36:11
67,37:18
67,38:18
67,39:18
67,40:18
67,41:4
67,42:4
67,44:11
67,45:11
67,46:4
67,48:4
67,49:4
67,51:8
67,52:8
67,53:18
67,54:8
67,56:8
67,58:11
67,59:1
67,60:18
67,61:8
67,62:11
67,63:18
67,64:4
67,68:3
67,69:16
67,70:12
68,1:4
68,3:8
68,4:8
68,7:1
68,8:1
68,9:8
68,10:8
68,12:1
68,13:9
68,14:4
68,15:4
68,16:4
68,17:4
68,20:1
68,21:9
68,22:9
68,23:4
68,24:4
68,25:13
68,28:13
68,29:8
68,30:1
68,31:4
68,32:8
68,35:8
68,36:8
68,37:15
68,38:15
68,39:15
68,40:15
68,41:1
68,42:1
68,44:8
68,45:8
68,46:1
68,48:1
68,49:1
68,51:5
68,52:5
68,53:15
68,54:5
68,56:5
68,58:8
68,60:15
68,61:5
68,62:8
68,63:15
68,64:1
68,69:13
68,70:9
69,37:2
69,38:2
69,39:2
69,40:2
69,53:2
69,60:2
69,63:2
70,25:4
70,28:4
70,37:6
70,38:6
70,39:6
70,40:6
70,53:6
70,60:6
70,63:6
70,69:4

<end>

<optimal SALBP-1 value>
14


<rand seed>
467321153

